p cnf 551 1369
c x0 -> 73
c x1 -> 55
c x2 -> 16
c x3 -> 74
c x4 -> 52
c x5 -> 75
c x6 -> 53
c x7 -> 54
c x8 -> 50
2 3 -1 0
-2 -3 -1 0
2 -3 1 0
-2 3 1 0
4 2 0
-4 -2 0
5 3 0
-5 -3 0
6 -4 0
7 -4 0
-6 -7 4 0
8 -5 0
9 -5 0
-8 -9 5 0
10 6 0
-10 -6 0
11 -7 0
12 -7 0
-11 -12 7 0
13 8 0
-13 -8 0
14 -9 0
15 -9 0
-14 -15 9 0
16 -10 0
17 -10 0
-16 -17 10 0
18 11 0
-18 -11 0
19 12 0
-19 -12 0
16 -13 0
21 -13 0
-16 -21 13 0
22 14 0
-22 -14 0
23 15 0
-23 -15 0
24 17 0
-24 -17 0
25 -18 0
26 -18 0
-25 -26 18 0
27 -19 0
28 -19 0
-27 -28 19 0
29 21 0
-29 -21 0
30 -22 0
31 -22 0
-30 -31 22 0
32 -23 0
33 -23 0
-32 -33 23 0
34 -24 0
35 -24 0
-34 -35 24 0
36 -25 0
37 -25 0
-36 -37 25 0
38 -26 0
39 -26 0
-38 -39 26 0
16 27 0
-16 -27 0
40 28 0
-40 -28 0
41 -29 0
42 -29 0
-41 -42 29 0
43 -30 0
44 -30 0
-43 -44 30 0
45 -31 0
46 -31 0
-45 -46 31 0
16 32 0
-16 -32 0
47 33 0
-47 -33 0
48 34 0
-48 -34 0
49 35 0
-49 -35 0
50 36 0
-50 -36 0
51 -37 0
52 -37 0
-51 -52 37 0
53 -38 0
54 -38 0
-53 -54 38 0
55 -39 0
56 -39 0
-55 -56 39 0
57 -40 0
58 -40 0
-57 -58 40 0
59 41 0
-59 -41 0
60 42 0
-60 -42 0
50 43 0
-50 -43 0
62 -44 0
52 -44 0
-62 -52 44 0
53 -45 0
54 -45 0
-53 -54 45 0
55 -46 0
67 -46 0
-55 -67 46 0
68 -47 0
69 -47 0
-68 -69 47 0
70 -48 0
71 -48 0
-70 -71 48 0
52 -49 0
72 -49 0
-52 -72 49 0
73 51 0
-73 -51 0
74 -56 0
75 -56 0
-74 -75 56 0
76 57 0
-76 -57 0
77 -58 0
78 -58 0
-77 -78 58 0
79 -59 0
80 -59 0
-79 -80 59 0
52 -60 0
81 -60 0
-52 -81 60 0
73 62 0
-73 -62 0
74 -67 0
75 -67 0
-74 -75 67 0
85 68 0
-85 -68 0
86 -69 0
87 -69 0
-86 -87 69 0
52 70 0
-52 -70 0
88 71 0
-88 -71 0
89 72 0
-89 -72 0
90 -76 0
91 -76 0
-90 -91 76 0
92 77 0
-92 -77 0
93 78 0
-93 -78 0
52 79 0
-52 -79 0
94 80 0
-94 -80 0
95 81 0
-95 -81 0
96 -85 0
97 -85 0
-96 -97 85 0
98 86 0
-98 -86 0
99 87 0
-99 -87 0
100 -88 0
101 -88 0
-100 -101 88 0
102 -89 0
103 -89 0
-102 -103 89 0
55 90 0
-55 -90 0
104 91 0
-104 -91 0
105 -92 0
106 -92 0
-105 -106 92 0
55 -93 0
107 -93 0
-55 -107 93 0
108 -94 0
109 -94 0
-108 -109 94 0
110 -95 0
111 -95 0
-110 -111 95 0
55 96 0
-55 -96 0
112 97 0
-112 -97 0
113 -98 0
114 -98 0
-113 -114 98 0
55 -99 0
115 -99 0
-55 -115 99 0
116 100 0
-116 -100 0
117 101 0
-117 -101 0
118 102 0
-118 -102 0
119 103 0
-119 -103 0
120 -104 0
121 -104 0
-120 -121 104 0
70 -105 0
122 -105 0
-70 -122 105 0
123 -106 0
124 -106 0
-123 -124 106 0
125 107 0
-125 -107 0
126 108 0
-126 -108 0
127 109 0
-127 -109 0
128 110 0
-128 -110 0
129 111 0
-129 -111 0
130 -112 0
131 -112 0
-130 -131 112 0
79 -113 0
132 -113 0
-79 -132 113 0
133 -114 0
134 -114 0
-133 -134 114 0
135 115 0
-135 -115 0
50 -116 0
136 -116 0
-50 -136 116 0
36 -117 0
137 -117 0
-36 -137 117 0
51 -118 0
138 -118 0
-51 -138 118 0
73 -119 0
139 -119 0
-73 -139 119 0
140 120 0
-140 -120 0
141 -121 0
142 -121 0
-141 -142 121 0
53 122 0
-53 -122 0
75 -123 0
143 -123 0
-75 -143 123 0
51 -124 0
74 -124 0
-51 -74 124 0
144 -125 0
145 -125 0
-144 -145 125 0
50 -126 0
146 -126 0
-50 -146 126 0
43 -127 0
147 -127 0
-43 -147 127 0
62 -128 0
148 -128 0
-62 -148 128 0
73 -129 0
149 -129 0
-73 -149 129 0
150 130 0
-150 -130 0
151 -131 0
152 -131 0
-151 -152 131 0
53 132 0
-53 -132 0
75 -133 0
153 -133 0
-75 -153 133 0
62 -134 0
74 -134 0
-62 -74 134 0
154 -135 0
155 -135 0
-154 -155 135 0
156 136 0
-156 -136 0
157 137 0
-157 -137 0
158 138 0
-158 -138 0
90 -139 0
159 -139 0
-90 -159 139 0
51 -140 0
160 -140 0
-51 -160 140 0
161 141 0
-161 -141 0
162 142 0
-162 -142 0
54 -143 0
50 -143 0
-54 -50 143 0
163 144 0
-163 -144 0
164 -145 0
165 -145 0
-164 -165 145 0
166 146 0
-166 -146 0
167 147 0
-167 -147 0
168 148 0
-168 -148 0
96 -149 0
169 -149 0
-96 -169 149 0
62 -150 0
170 -150 0
-62 -170 150 0
171 151 0
-171 -151 0
172 152 0
-172 -152 0
54 -153 0
50 -153 0
-54 -50 153 0
173 154 0
-173 -154 0
174 -155 0
175 -155 0
-174 -175 155 0
176 -156 0
177 -156 0
-176 -177 156 0
178 -157 0
179 -157 0
-178 -179 157 0
180 -158 0
181 -158 0
-180 -181 158 0
182 159 0
-182 -159 0
183 160 0
-183 -160 0
184 -161 0
185 -161 0
-184 -185 161 0
73 -162 0
186 -162 0
-73 -186 162 0
187 -163 0
188 -163 0
-187 -188 163 0
189 164 0
-189 -164 0
190 -165 0
191 -165 0
-190 -191 165 0
192 -166 0
193 -166 0
-192 -193 166 0
194 -167 0
195 -167 0
-194 -195 167 0
196 -168 0
197 -168 0
-196 -197 168 0
198 169 0
-198 -169 0
199 170 0
-199 -170 0
200 -171 0
201 -171 0
-200 -201 171 0
73 -172 0
202 -172 0
-73 -202 172 0
203 -173 0
204 -173 0
-203 -204 173 0
205 174 0
-205 -174 0
206 -175 0
207 -175 0
-206 -207 175 0
208 176 0
-208 -176 0
209 177 0
-209 -177 0
210 178 0
-210 -178 0
211 179 0
-211 -179 0
212 180 0
-212 -180 0
213 181 0
-213 -181 0
214 -182 0
215 -182 0
-214 -215 182 0
216 -183 0
217 -183 0
-216 -217 183 0
52 -184 0
75 -184 0
-52 -75 184 0
218 -185 0
219 -185 0
-218 -219 185 0
220 186 0
-220 -186 0
75 187 0
-75 -187 0
221 188 0
-221 -188 0
222 -189 0
223 -189 0
-222 -223 189 0
224 -190 0
225 -190 0
-224 -225 190 0
226 191 0
-226 -191 0
227 192 0
-227 -192 0
228 193 0
-228 -193 0
229 194 0
-229 -194 0
230 195 0
-230 -195 0
231 196 0
-231 -196 0
232 197 0
-232 -197 0
233 -198 0
234 -198 0
-233 -234 198 0
235 -199 0
236 -199 0
-235 -236 199 0
52 -200 0
75 -200 0
-52 -75 200 0
237 -201 0
238 -201 0
-237 -238 201 0
239 202 0
-239 -202 0
75 203 0
-75 -203 0
240 204 0
-240 -204 0
241 -205 0
242 -205 0
-241 -242 205 0
243 -206 0
244 -206 0
-243 -244 206 0
245 207 0
-245 -207 0
55 -208 0
246 -208 0
-55 -246 208 0
247 -209 0
248 -209 0
-247 -248 209 0
249 -210 0
250 -210 0
-249 -250 210 0
251 -211 0
252 -211 0
-251 -252 211 0
253 -212 0
254 -212 0
-253 -254 212 0
255 -213 0
256 -213 0
-255 -256 213 0
257 214 0
-257 -214 0
258 215 0
-258 -215 0
259 216 0
-259 -216 0
260 217 0
-260 -217 0
74 218 0
-74 -218 0
36 -219 0
261 -219 0
-36 -261 219 0
262 -220 0
263 -220 0
-262 -263 220 0
264 -221 0
265 -221 0
-264 -265 221 0
266 -222 0
267 -222 0
-266 -267 222 0
268 223 0
-268 -223 0
269 224 0
-269 -224 0
270 225 0
-270 -225 0
271 -226 0
272 -226 0
-271 -272 226 0
55 -227 0
273 -227 0
-55 -273 227 0
274 -228 0
275 -228 0
-274 -275 228 0
276 -229 0
277 -229 0
-276 -277 229 0
278 -230 0
279 -230 0
-278 -279 230 0
280 -231 0
281 -231 0
-280 -281 231 0
282 -232 0
283 -232 0
-282 -283 232 0
284 233 0
-284 -233 0
285 234 0
-285 -234 0
286 235 0
-286 -235 0
287 236 0
-287 -236 0
74 237 0
-74 -237 0
43 -238 0
288 -238 0
-43 -288 238 0
289 -239 0
290 -239 0
-289 -290 239 0
291 -240 0
292 -240 0
-291 -292 240 0
293 -241 0
294 -241 0
-293 -294 241 0
295 242 0
-295 -242 0
296 243 0
-296 -243 0
297 244 0
-297 -244 0
298 -245 0
299 -245 0
-298 -299 245 0
300 246 0
-300 -246 0
301 -247 0
302 -247 0
-301 -302 247 0
90 -248 0
251 -248 0
-90 -251 248 0
303 249 0
-303 -249 0
304 250 0
-304 -250 0
305 251 0
-305 -251 0
218 -252 0
306 -252 0
-218 -306 252 0
122 -253 0
307 -253 0
-122 -307 253 0
308 254 0
-308 -254 0
309 255 0
-309 -255 0
310 256 0
-310 -256 0
311 -257 0
312 -257 0
-311 -312 257 0
187 -258 0
219 -258 0
-187 -219 258 0
313 -259 0
184 -259 0
-313 -184 259 0
271 -260 0
314 -260 0
-271 -314 260 0
122 -261 0
54 -261 0
-122 -54 261 0
315 262 0
-315 -262 0
316 263 0
-316 -263 0
317 264 0
-317 -264 0
318 265 0
-318 -265 0
319 266 0
-319 -266 0
218 -267 0
143 -267 0
-218 -143 267 0
320 -268 0
321 -268 0
-320 -321 268 0
322 -269 0
323 -269 0
-322 -323 269 0
324 -270 0
325 -270 0
-324 -325 270 0
70 -271 0
53 -271 0
-70 -53 271 0
326 -272 0
124 -272 0
-326 -124 272 0
327 273 0
-327 -273 0
328 -274 0
329 -274 0
-328 -329 274 0
96 -275 0
278 -275 0
-96 -278 275 0
330 276 0
-330 -276 0
331 277 0
-331 -277 0
332 278 0
-332 -278 0
237 -279 0
333 -279 0
-237 -333 279 0
132 -280 0
334 -280 0
-132 -334 280 0
335 281 0
-335 -281 0
336 282 0
-336 -282 0
337 283 0
-337 -283 0
338 -284 0
339 -284 0
-338 -339 284 0
203 -285 0
238 -285 0
-203 -238 285 0
340 -286 0
200 -286 0
-340 -200 286 0
298 -287 0
341 -287 0
-298 -341 287 0
132 -288 0
54 -288 0
-132 -54 288 0
342 289 0
-342 -289 0
343 290 0
-343 -290 0
344 291 0
-344 -291 0
345 292 0
-345 -292 0
346 293 0
-346 -293 0
237 -294 0
153 -294 0
-237 -153 294 0
347 -295 0
348 -295 0
-347 -348 295 0
349 -296 0
350 -296 0
-349 -350 296 0
351 -297 0
352 -297 0
-351 -352 297 0
79 -298 0
53 -298 0
-79 -53 298 0
353 -299 0
134 -299 0
-353 -134 299 0
354 -300 0
355 -300 0
-354 -355 300 0
356 301 0
-356 -301 0
357 -302 0
358 -302 0
-357 -358 302 0
359 -303 0
251 -303 0
-359 -251 303 0
360 -304 0
361 -304 0
-360 -361 304 0
187 -305 0
54 -305 0
-187 -54 305 0
362 -306 0
363 -306 0
-362 -363 306 0
364 -307 0
50 -307 0
-364 -50 307 0
365 -308 0
366 -308 0
-365 -366 308 0
367 -309 0
368 -309 0
-367 -368 309 0
55 -310 0
369 -310 0
-55 -369 310 0
370 311 0
-370 -311 0
371 -312 0
372 -312 0
-371 -372 312 0
74 -313 0
253 -313 0
-74 -253 313 0
305 -314 0
373 -314 0
-305 -373 314 0
374 -315 0
375 -315 0
-374 -375 315 0
376 -316 0
377 -316 0
-376 -377 316 0
37 -317 0
378 -317 0
-37 -378 317 0
73 -318 0
379 -318 0
-73 -379 318 0
73 -319 0
187 -319 0
-73 -187 319 0
271 320 0
-271 -320 0
272 321 0
-272 -321 0
380 -322 0
25 -322 0
-380 -25 322 0
381 -323 0
382 -323 0
-381 -382 323 0
383 324 0
-383 -324 0
105 -325 0
384 -325 0
-105 -384 325 0
187 -326 0
385 -326 0
-187 -385 326 0
386 -327 0
387 -327 0
-386 -387 327 0
388 328 0
-388 -328 0
389 -329 0
390 -329 0
-389 -390 329 0
391 -330 0
278 -330 0
-391 -278 330 0
392 -331 0
393 -331 0
-392 -393 331 0
203 -332 0
54 -332 0
-203 -54 332 0
394 -333 0
395 -333 0
-394 -395 333 0
396 -334 0
50 -334 0
-396 -50 334 0
397 -335 0
398 -335 0
-397 -398 335 0
399 -336 0
400 -336 0
-399 -400 336 0
55 -337 0
401 -337 0
-55 -401 337 0
402 338 0
-402 -338 0
403 -339 0
404 -339 0
-403 -404 339 0
74 -340 0
280 -340 0
-74 -280 340 0
332 -341 0
405 -341 0
-332 -405 341 0
406 -342 0
407 -342 0
-406 -407 342 0
408 -343 0
409 -343 0
-408 -409 343 0
44 -344 0
410 -344 0
-44 -410 344 0
73 -345 0
411 -345 0
-73 -411 345 0
73 -346 0
203 -346 0
-73 -203 346 0
298 347 0
-298 -347 0
299 348 0
-299 -348 0
412 -349 0
30 -349 0
-412 -30 349 0
413 -350 0
414 -350 0
-413 -414 350 0
415 351 0
-415 -351 0
113 -352 0
416 -352 0
-113 -416 352 0
203 -353 0
417 -353 0
-203 -417 353 0
418 354 0
-418 -354 0
419 355 0
-419 -355 0
365 -356 0
420 -356 0
-365 -420 356 0
421 357 0
-421 -357 0
422 358 0
-422 -358 0
423 359 0
-423 -359 0
424 360 0
-424 -360 0
425 361 0
-425 -361 0
426 362 0
-426 -362 0
73 -363 0
55 -363 0
-73 -55 363 0
54 364 0
-54 -364 0
427 365 0
-427 -365 0
39 366 0
-39 -366 0
428 367 0
-428 -367 0
429 368 0
-429 -368 0
430 -369 0
358 -369 0
-430 -358 369 0
431 -370 0
432 -370 0
-431 -432 370 0
433 371 0
-433 -371 0
434 372 0
-434 -372 0
218 -373 0
36 -373 0
-218 -36 373 0
435 374 0
-435 -374 0
381 -375 0
436 -375 0
-381 -436 375 0
358 -376 0
437 -376 0
-358 -437 376 0
438 -377 0
439 -377 0
-438 -439 377 0
74 -378 0
219 -378 0
-74 -219 378 0
53 -379 0
440 -379 0
-53 -440 379 0
261 380 0
-261 -380 0
441 381 0
-441 -381 0
442 382 0
-442 -382 0
443 -383 0
444 -383 0
-443 -444 383 0
124 384 0
-124 -384 0
364 -385 0
36 -385 0
-364 -36 385 0
445 386 0
-445 -386 0
446 387 0
-446 -387 0
397 -388 0
447 -388 0
-397 -447 388 0
448 389 0
-448 -389 0
449 390 0
-449 -390 0
450 391 0
-450 -391 0
451 392 0
-451 -392 0
452 393 0
-452 -393 0
453 394 0
-453 -394 0
73 -395 0
55 -395 0
-73 -55 395 0
54 396 0
-54 -396 0
454 397 0
-454 -397 0
46 398 0
-46 -398 0
455 399 0
-455 -399 0
456 400 0
-456 -400 0
457 -401 0
390 -401 0
-457 -390 401 0
458 -402 0
459 -402 0
-458 -459 402 0
460 403 0
-460 -403 0
461 404 0
-461 -404 0
237 -405 0
43 -405 0
-237 -43 405 0
462 406 0
-462 -406 0
413 -407 0
463 -407 0
-413 -463 407 0
390 -408 0
464 -408 0
-390 -464 408 0
465 -409 0
466 -409 0
-465 -466 409 0
74 -410 0
238 -410 0
-74 -238 410 0
53 -411 0
467 -411 0
-53 -467 411 0
288 412 0
-288 -412 0
468 413 0
-468 -413 0
469 414 0
-469 -414 0
470 -415 0
471 -415 0
-470 -471 415 0
134 416 0
-134 -416 0
396 -417 0
43 -417 0
-396 -43 417 0
74 -418 0
472 -418 0
-74 -472 418 0
218 -419 0
473 -419 0
-218 -473 419 0
474 420 0
-474 -420 0
51 -421 0
122 -421 0
-51 -122 421 0
218 -422 0
53 -422 0
-218 -53 422 0
75 -423 0
364 -423 0
-75 -364 423 0
55 -424 0
475 -424 0
-55 -475 424 0
90 -425 0
476 -425 0
-90 -476 425 0
477 -426 0
438 -426 0
-477 -438 426 0
187 -427 0
430 -427 0
-187 -430 427 0
305 -428 0
478 -428 0
-305 -478 428 0
433 -429 0
479 -429 0
-433 -479 429 0
480 430 0
-480 -430 0
313 431 0
-313 -431 0
481 432 0
-481 -432 0
53 -433 0
364 -433 0
-53 -364 433 0
187 -434 0
380 -434 0
-187 -380 434 0
122 -435 0
482 -435 0
-122 -482 435 0
483 436 0
-483 -436 0
484 437 0
-484 -437 0
485 438 0
-485 -438 0
486 -439 0
487 -439 0
-486 -487 439 0
488 440 0
-488 -440 0
74 -441 0
53 -441 0
-74 -53 441 0
364 -442 0
489 -442 0
-364 -489 442 0
326 443 0
-326 -443 0
490 444 0
-490 -444 0
74 -445 0
491 -445 0
-74 -491 445 0
237 -446 0
492 -446 0
-237 -492 446 0
493 447 0
-493 -447 0
62 -448 0
132 -448 0
-62 -132 448 0
237 -449 0
53 -449 0
-237 -53 449 0
75 -450 0
396 -450 0
-75 -396 450 0
55 -451 0
494 -451 0
-55 -494 451 0
96 -452 0
495 -452 0
-96 -495 452 0
496 -453 0
465 -453 0
-496 -465 453 0
203 -454 0
457 -454 0
-203 -457 454 0
332 -455 0
497 -455 0
-332 -497 455 0
460 -456 0
498 -456 0
-460 -498 456 0
499 457 0
-499 -457 0
340 458 0
-340 -458 0
500 459 0
-500 -459 0
53 -460 0
396 -460 0
-53 -396 460 0
203 -461 0
412 -461 0
-203 -412 461 0
132 -462 0
501 -462 0
-132 -501 462 0
502 463 0
-502 -463 0
503 464 0
-503 -464 0
504 465 0
-504 -465 0
505 -466 0
506 -466 0
-505 -506 466 0
507 467 0
-507 -467 0
74 -468 0
53 -468 0
-74 -53 468 0
396 -469 0
508 -469 0
-396 -508 469 0
353 470 0
-353 -470 0
509 471 0
-509 -471 0
510 472 0
-510 -472 0
511 -473 0
426 -473 0
-511 -426 473 0
512 -474 0
513 -474 0
-512 -513 474 0
74 -475 0
421 -475 0
-74 -421 475 0
514 -476 0
422 -476 0
-514 -422 476 0
38 477 0
-38 -477 0
50 -478 0
515 -478 0
-50 -515 478 0
516 -479 0
373 -479 0
-516 -373 479 0
74 -480 0
122 -480 0
-74 -122 480 0
380 -481 0
373 -481 0
-380 -373 481 0
517 482 0
-517 -482 0
443 -483 0
518 -483 0
-443 -518 483 0
519 -484 0
382 -484 0
-519 -382 484 0
187 -485 0
122 -485 0
-187 -122 485 0
184 486 0
-184 -486 0
520 487 0
-520 -487 0
521 -488 0
522 -488 0
-521 -522 488 0
56 489 0
-56 -489 0
307 -490 0
56 -490 0
-307 -56 490 0
523 491 0
-523 -491 0
524 -492 0
453 -492 0
-524 -453 492 0
525 -493 0
526 -493 0
-525 -526 493 0
74 -494 0
448 -494 0
-74 -448 494 0
527 -495 0
449 -495 0
-527 -449 495 0
45 496 0
-45 -496 0
50 -497 0
528 -497 0
-50 -528 497 0
529 -498 0
405 -498 0
-529 -405 498 0
74 -499 0
132 -499 0
-74 -132 499 0
412 -500 0
405 -500 0
-412 -405 500 0
530 501 0
-530 -501 0
470 -502 0
531 -502 0
-470 -531 502 0
532 -503 0
414 -503 0
-532 -414 503 0
203 -504 0
132 -504 0
-203 -132 504 0
200 505 0
-200 -505 0
533 506 0
-533 -506 0
534 -507 0
535 -507 0
-534 -535 507 0
67 508 0
-67 -508 0
334 -509 0
67 -509 0
-334 -67 509 0
536 -510 0
537 -510 0
-536 -537 510 0
51 -511 0
359 -511 0
-51 -359 511 0
538 512 0
-538 -512 0
75 -513 0
54 -513 0
-75 -54 513 0
539 514 0
-539 -514 0
540 515 0
-540 -515 0
511 516 0
-511 -516 0
74 -517 0
52 -517 0
-74 -52 517 0
123 518 0
-123 -518 0
219 519 0
-219 -519 0
36 -520 0
489 -520 0
-36 -489 520 0
267 521 0
-267 -521 0
541 522 0
-541 -522 0
542 -523 0
543 -523 0
-542 -543 523 0
62 -524 0
391 -524 0
-62 -391 524 0
544 525 0
-544 -525 0
75 -526 0
54 -526 0
-75 -54 526 0
545 527 0
-545 -527 0
546 528 0
-546 -528 0
524 529 0
-524 -529 0
74 -530 0
52 -530 0
-74 -52 530 0
133 531 0
-133 -531 0
238 532 0
-238 -532 0
43 -533 0
508 -533 0
-43 -508 533 0
294 534 0
-294 -534 0
547 535 0
-547 -535 0
548 536 0
-548 -536 0
549 537 0
-549 -537 0
73 -538 0
430 -538 0
-73 -430 538 0
51 -539 0
75 -539 0
-51 -75 539 0
90 -540 0
381 -540 0
-90 -381 540 0
517 -541 0
385 -541 0
-517 -385 541 0
550 542 0
-550 -542 0
551 543 0
-551 -543 0
73 -544 0
457 -544 0
-73 -457 544 0
62 -545 0
75 -545 0
-62 -75 545 0
96 -546 0
413 -546 0
-96 -413 546 0
530 -547 0
417 -547 0
-530 -417 547 0
539 -548 0
433 -548 0
-539 -433 548 0
261 -549 0
319 -549 0
-261 -319 549 0
545 -550 0
460 -550 0
-545 -460 550 0
288 -551 0
346 -551 0
-288 -346 551 0
1 0
